(set-logic QF_S)
(declare-fun var_0xINPUT_127903 () String)
(assert (and (= (len var_0xINPUT_127903) 0) (= (len var_0xINPUT_127903) 0) (not (= var_0xINPUT_127903 "Example:")) (not (= var_0xINPUT_127903 "3s71lxYG6e"))))
(check-sat var_0xINPUT_127903)